33D32945 STP File, STP Format Version 1.0

SECTION Comments
Name "edge_n12_d5_s29"
Problem "Euclidean Steiner Tree Problem"
Remark "Generated with STPGenerator. 5 dimensions."
END

SECTION Graph
Nodes 12
END

SECTION Coordinates
DDDDD 0 0.8759893737 0.8759893737 0.8759893737 0.8759893737 0.8759893737
DDDDD 1 0.4619202984 0.4619202984 0.4619202984 0.4619202984 0.4619202984
DDDDD 2 0.7565934233 0.7565934233 0.7565934233 0.7565934233 0.7565934233
DDDDD 3 0.2626699606 0.2626699606 0.2626699606 0.2626699606 0.2626699606
DDDDD 4 0.5662877856 0.5662877856 0.5662877856 0.5662877856 0.5662877856
DDDDD 5 0.3799464867 0.3799464867 0.3799464867 0.3799464867 0.3799464867
DDDDD 6 0.4450082292 0.4450082292 0.4450082292 0.4450082292 0.4450082292
DDDDD 7 0.5312397017 0.5312397017 0.5312397017 0.5312397017 0.5312397017
DDDDD 8 0.8309675659 0.8309675659 0.8309675659 0.8309675659 0.8309675659
DDDDD 9 0.9260082347 0.9260082347 0.9260082347 0.9260082347 0.9260082347
DDDDD 10 0.7454492528 0.7454492528 0.7454492528 0.7454492528 0.7454492528
DDDDD 11 0.1616497483 0.1616497483 0.1616497483 0.1616497483 0.1616497483
END
